// Network
num_nodes = 9;
comms_range = 1.0;
SourceIDs = {1};
SinkIDs = {9};

Coordinates = [
	<0,0>, <1,0>, <2,0>,
	<0,1>, <1,1>, <2,1>,
	<0,2>, <1,2>, <2,2>,
];

// Attacker
attacker_start_pos = 9;
attacker_range = 1.0;

num_fake_messages = 0;

// Routing Settings
source_period = 1; // seconds between messages
safety_period = 5.0;

slots_per_second = 5;

obj = 0;

message_sent_once = 1;
